8 8
  0	54	1	16	2	74	3	34	4	63	5	42	6	23	7	9	
  0	84	1	5	2	62	3	12	4	86	5	44	6	28	7	97	
  0	22	1	44	2	14	3	93	4	66	5	45	6	78	7	20	
  0	76	1	23	2	42	3	20	4	55	5	82	6	19	7	77	
  0	81	1	85	2	79	3	8	4	69	5	35	6	48	7	76	
  0	30	1	13	2	63	3	19	4	55	5	17	6	85	7	55	
  0	68	1	43	2	98	3	59	4	14	5	64	6	26	7	66	
  0	40	1	67	2	69	3	5	4	82	5	70	6	96	7	46	
